(set-info :source |printed by MathSAT|)
(declare-fun |!{$(in_main#0)<N>}| () Int)
(declare-fun |!{$(in_main#0)<N>}.next| () Int)
(declare-fun |!{$(in_main#0)<i>}| () Int)
(declare-fun |!{$(in_main#0)<i>}.next| () Int)
(declare-fun |!{$(in_main#0)<k>}| () Int)
(declare-fun |!{$(in_main#0)<k>}.next| () Int)
(declare-fun |!{$(in_main#0)<a.1>}| () (Array Int Int))
(declare-fun |!{$(in_main#0)<a.1>}.next| () (Array Int Int))
(declare-fun |!{$(in_main#0)<b.2>}| () (Array Int Int))
(declare-fun |!{$(in_main#0)<b.2>}.next| () (Array Int Int))
(declare-fun |!{$(in_main#0)<c.3>}| () (Array Int Int))
(declare-fun |!{$(in_main#0)<c.3>}.next| () (Array Int Int))
(declare-fun |!{$(in_main#0)<$(in___VERIFIER_nondet_int#0)<h#<__VERIFIER_nondet_int.return>>>}| () Int)
(declare-fun !pc () Int)
(declare-fun !pc.next () Int)
(declare-fun |%{$(in_main#0)<k>}#1| () Int)
(declare-fun |%{$(in_main#0)<a.1>}#1| () (Array Int Int))
(declare-fun |%{$(in_main#0)<b.2>}#1| () (Array Int Int))
(declare-fun |%{$(in_main#0)<c.3>}#1| () (Array Int Int))
(define-fun .def_32 () Int (! !pc :next !pc.next))
(define-fun .def_35 () Bool (! (= .def_32 2) :init true))
(define-fun .def_173 () Bool (= .def_32 41))
(define-fun .def_152 () Bool (= !pc.next 56))
(define-fun .def_176 () Bool (and .def_152 .def_173))
(define-fun .def_8 () Int (! |!{$(in_main#0)<N>}| :next |!{$(in_main#0)<N>}.next|))
(define-fun .def_80 () Bool (= .def_8 |!{$(in_main#0)<N>}.next|))
(define-fun .def_54 () Bool (= |!{$(in_main#0)<i>}.next| 0))
(define-fun .def_167 () Bool (and .def_54 .def_80))
(define-fun .def_12 () Int (! |!{$(in_main#0)<k>}| :next |!{$(in_main#0)<k>}.next|))
(define-fun .def_84 () Bool (= .def_12 |!{$(in_main#0)<k>}.next|))
(define-fun .def_168 () Bool (and .def_84 .def_167))
(define-fun .def_14 () (Array Int Int) (! |!{$(in_main#0)<a.1>}| :next |!{$(in_main#0)<a.1>}.next|))
(define-fun .def_86 () Bool (= .def_14 |!{$(in_main#0)<a.1>}.next|))
(define-fun .def_169 () Bool (and .def_86 .def_168))
(define-fun .def_16 () (Array Int Int) (! |!{$(in_main#0)<b.2>}| :next |!{$(in_main#0)<b.2>}.next|))
(define-fun .def_88 () Bool (= .def_16 |!{$(in_main#0)<b.2>}.next|))
(define-fun .def_170 () Bool (and .def_88 .def_169))
(define-fun .def_18 () (Array Int Int) (! |!{$(in_main#0)<c.3>}| :next |!{$(in_main#0)<c.3>}.next|))
(define-fun .def_90 () Bool (= .def_18 |!{$(in_main#0)<c.3>}.next|))
(define-fun .def_171 () Bool (and .def_90 .def_170))
(define-fun .def_10 () Int (! |!{$(in_main#0)<i>}| :next |!{$(in_main#0)<i>}.next|))
(define-fun .def_127 () Bool (<= .def_8 .def_10))
(define-fun .def_172 () Bool (and .def_127 .def_171))
(define-fun .def_177 () Bool (and .def_172 .def_176))
(define-fun .def_66 () Bool (= !pc.next 41))
(define-fun .def_174 () Bool (and .def_66 .def_173))
(define-fun .def_160 () (Array Int Int) (store .def_16 .def_10 2))
(define-fun .def_163 () Bool (= |!{$(in_main#0)<b.2>}.next| .def_160))
(define-fun .def_159 () (Array Int Int) (store .def_14 .def_10 1))
(define-fun .def_161 () Bool (= |!{$(in_main#0)<a.1>}.next| .def_159))
(define-fun .def_134 () Int (* (- 1) |!{$(in_main#0)<i>}.next|))
(define-fun .def_135 () Int (+ .def_10 .def_134))
(define-fun .def_136 () Bool (= .def_135 (- 1)))
(define-fun .def_137 () Bool (and .def_80 .def_136))
(define-fun .def_138 () Bool (and .def_84 .def_137))
(define-fun .def_162 () Bool (and .def_138 .def_161))
(define-fun .def_164 () Bool (and .def_162 .def_163))
(define-fun .def_165 () Bool (and .def_90 .def_164))
(define-fun .def_128 () Bool (not .def_127))
(define-fun .def_166 () Bool (and .def_128 .def_165))
(define-fun .def_175 () Bool (and .def_166 .def_174))
(define-fun .def_178 () Bool (or .def_175 .def_177))
(define-fun .def_151 () Bool (= .def_32 56))
(define-fun .def_116 () Bool (= !pc.next 69))
(define-fun .def_155 () Bool (and .def_116 .def_151))
(define-fun .def_144 () Bool (= |!{$(in_main#0)<k>}.next| 1))
(define-fun .def_82 () Bool (= .def_10 |!{$(in_main#0)<i>}.next|))
(define-fun .def_93 () Bool (and .def_80 .def_82))
(define-fun .def_145 () Bool (and .def_93 .def_144))
(define-fun .def_146 () Bool (and .def_86 .def_145))
(define-fun .def_147 () Bool (and .def_88 .def_146))
(define-fun .def_148 () Bool (and .def_90 .def_147))
(define-fun .def_149 () Bool (and .def_127 .def_148))
(define-fun .def_156 () Bool (and .def_149 .def_155))
(define-fun .def_153 () Bool (and .def_151 .def_152))
(define-fun .def_130 () Int (select .def_16 .def_10))
(define-fun .def_129 () Int (select .def_14 .def_10))
(define-fun .def_131 () Int (+ .def_129 .def_130))
(define-fun .def_132 () (Array Int Int) (store .def_18 .def_10 .def_131))
(define-fun .def_141 () Bool (= |!{$(in_main#0)<c.3>}.next| .def_132))
(define-fun .def_139 () Bool (and .def_86 .def_138))
(define-fun .def_140 () Bool (and .def_88 .def_139))
(define-fun .def_142 () Bool (and .def_140 .def_141))
(define-fun .def_143 () Bool (and .def_128 .def_142))
(define-fun .def_154 () Bool (and .def_143 .def_153))
(define-fun .def_157 () Bool (or .def_154 .def_156))
(define-fun .def_120 () Bool (= !pc.next 0))
(define-fun .def_111 () Bool (= .def_32 69))
(define-fun .def_121 () Bool (and .def_111 .def_120))
(define-fun .def_69 () Bool (<= .def_8 .def_12))
(define-fun .def_104 () Bool (and .def_69 .def_80))
(define-fun .def_105 () Bool (and .def_82 .def_104))
(define-fun .def_106 () Bool (and .def_84 .def_105))
(define-fun .def_107 () Bool (and .def_86 .def_106))
(define-fun .def_108 () Bool (and .def_88 .def_107))
(define-fun .def_109 () Bool (and .def_90 .def_108))
(define-fun .def_122 () Bool (and .def_109 .def_121))
(define-fun .def_117 () Bool (and .def_111 .def_116))
(define-fun .def_95 () Int (* (- 1) |!{$(in_main#0)<k>}.next|))
(define-fun .def_96 () Int (+ .def_12 .def_95))
(define-fun .def_97 () Bool (= .def_96 (- 1)))
(define-fun .def_98 () Bool (and .def_93 .def_97))
(define-fun .def_99 () Bool (and .def_86 .def_98))
(define-fun .def_100 () Bool (and .def_88 .def_99))
(define-fun .def_101 () Bool (and .def_90 .def_100))
(define-fun .def_71 () Int (select .def_18 .def_12))
(define-fun .def_73 () Bool (<= 3 .def_71))
(define-fun .def_74 () Int (ite .def_73 1 0))
(define-fun .def_75 () Bool (= .def_74 0))
(define-fun .def_76 () Bool (not .def_75))
(define-fun .def_102 () Bool (and .def_76 .def_101))
(define-fun .def_70 () Bool (not .def_69))
(define-fun .def_103 () Bool (and .def_70 .def_102))
(define-fun .def_118 () Bool (and .def_103 .def_117))
(define-fun .def_113 () Bool (= !pc.next 89))
(define-fun .def_114 () Bool (and .def_111 .def_113))
(define-fun .def_81 () Bool (and .def_75 .def_80))
(define-fun .def_83 () Bool (and .def_81 .def_82))
(define-fun .def_85 () Bool (and .def_83 .def_84))
(define-fun .def_87 () Bool (and .def_85 .def_86))
(define-fun .def_89 () Bool (and .def_87 .def_88))
(define-fun .def_91 () Bool (and .def_89 .def_90))
(define-fun .def_92 () Bool (and .def_70 .def_91))
(define-fun .def_115 () Bool (and .def_92 .def_114))
(define-fun .def_119 () Bool (or .def_115 .def_118))
(define-fun .def_123 () Bool (or .def_119 .def_122))
(define-fun .def_67 () Bool (and .def_35 .def_66))
(define-fun .def_62 () Bool (= |!{$(in_main#0)<c.3>}.next| |%{$(in_main#0)<c.3>}#1|))
(define-fun .def_60 () Bool (= |!{$(in_main#0)<b.2>}.next| |%{$(in_main#0)<b.2>}#1|))
(define-fun .def_58 () Bool (= |!{$(in_main#0)<a.1>}.next| |%{$(in_main#0)<a.1>}#1|))
(define-fun .def_56 () Bool (= |!{$(in_main#0)<k>}.next| |%{$(in_main#0)<k>}#1|))
(define-fun .def_53 () Bool (= |!{$(in_main#0)<N>}.next| |!{$(in_main#0)<$(in___VERIFIER_nondet_int#0)<h#<__VERIFIER_nondet_int.return>>>}|))
(define-fun .def_55 () Bool (and .def_53 .def_54))
(define-fun .def_57 () Bool (and .def_55 .def_56))
(define-fun .def_59 () Bool (and .def_57 .def_58))
(define-fun .def_61 () Bool (and .def_59 .def_60))
(define-fun .def_63 () Bool (and .def_61 .def_62))
(define-fun .def_48 () Bool (<= |!{$(in_main#0)<$(in___VERIFIER_nondet_int#0)<h#<__VERIFIER_nondet_int.return>>>}| 0))
(define-fun .def_49 () Bool (not .def_48))
(define-fun .def_50 () Int (ite .def_49 1 0))
(define-fun .def_51 () Bool (= .def_50 0))
(define-fun .def_52 () Bool (not .def_51))
(define-fun .def_64 () Bool (and .def_52 .def_63))
(define-fun .def_68 () Bool (and .def_64 .def_67))
(define-fun .def_124 () Bool (or .def_68 .def_123))
(define-fun .def_158 () Bool (or .def_124 .def_157))
(define-fun .def_179 () Bool (! (or .def_158 .def_178) :trans true))
(define-fun .def_125 () Bool (= .def_32 89))
(define-fun .def_180 () Bool (! (not .def_125) :invar-property 0 :invar-property-name ||))
(assert true)
